documentations/cours/Programmation contraintes/autre projet 5/projet5/ex/exemple_origine.dzn
n = 3;
nb_couleurs = 8;
nb_couleurs2 = 9;
nb_formes = 5;
nb_variantes = 5;
gris = 1;
t = [|1,307,992,1,
|1,307,732,307,
|1,1,850,307,
|992,537,1250,1,
|732,992,992,537,
|850,1,992,992,
|1250,1438,1,1,
|992,647,1,1438,
|992,1,1,647,
|];