documentations/cours/Programmation contraintes/projet5/ex/exemple_origine
g### YBsn RBxn g####
g### YBsn GYsn YBsn
g### g### GOcp YBsn
RBxn BBqn OGcp g###
GYsn RBxn RBxn BBqn
GOcp g### RBxn RBxn
OGcp PBqc g### g###
RBxn BPcn g### PBqc
RBxn g### g### BPcn
